solution status: time limit reached
objective value:                                   29
C0122                                               1 	(obj:0)
C0124                                               1 	(obj:0)
C0126                                               1 	(obj:0)
C0128                                               1 	(obj:0)
C0130                                               1 	(obj:0)
C0134                                               1 	(obj:0)
C0144                                               1 	(obj:0)
C0154                                               1 	(obj:0)
C0164                                               1 	(obj:0)
C0174                                               1 	(obj:0)
C0184                                               1 	(obj:0)
C0311                                               1 	(obj:0)
C0313                                               1 	(obj:0)
C0315                                               1 	(obj:0)
C0317                                               1 	(obj:0)
C0319                                               1 	(obj:0)
C0321                                               1 	(obj:0)
C0323                                               1 	(obj:0)
C0325                                               1 	(obj:0)
C0327                                               1 	(obj:0)
C0329                                               1 	(obj:0)
C0331                                               1 	(obj:0)
C0333                                               1 	(obj:0)
C0335                                               1 	(obj:0)
C0337                                               1 	(obj:0)
C0339                                               1 	(obj:0)
C0342                                               1 	(obj:0)
C0344                                               1 	(obj:0)
C0346                                               1 	(obj:0)
C0348                                               1 	(obj:0)
C0350                                               1 	(obj:0)
C0352                                               1 	(obj:0)
C0354                                               1 	(obj:0)
C0356                                               1 	(obj:0)
C0358                                               1 	(obj:0)
C0360                                               1 	(obj:0)
C0459                                               1 	(obj:0)
C0522                                               1 	(obj:0)
C0524                                               1 	(obj:0)
C0535                                               1 	(obj:0)
C0551                                               1 	(obj:0)
C0553                                               1 	(obj:0)
C0555                                               1 	(obj:0)
C0557                                               1 	(obj:0)
C0559                                               1 	(obj:0)
C0579                                               1 	(obj:0)
C0681                                               1 	(obj:0)
C0683                                               1 	(obj:0)
C0685                                               1 	(obj:0)
C0687                                               1 	(obj:0)
C0689                                               1 	(obj:0)
C0718                                               1 	(obj:0)
C0720                                               1 	(obj:0)
C0722                                               1 	(obj:0)
C0724                                               1 	(obj:0)
C0726                                               1 	(obj:0)
C0728                                               1 	(obj:0)
C0730                                               1 	(obj:0)
C0761                                               1 	(obj:0)
C0763                                               1 	(obj:0)
C0765                                               1 	(obj:0)
C0767                                               1 	(obj:0)
C0769                                               1 	(obj:0)
C0776                                               1 	(obj:0)
C0796                                               1 	(obj:0)
C0800                                               1 	(obj:0)
C0806                                               1 	(obj:0)
C0816                                               1 	(obj:0)
C0826                                               1 	(obj:0)
C0836                                               1 	(obj:0)
C0840                                               1 	(obj:0)
C0850                                               1 	(obj:0)
C0866                                               1 	(obj:0)
C0870                                               1 	(obj:0)
C0896                                               1 	(obj:0)
C0906                                               1 	(obj:0)
C0910                                               1 	(obj:0)
C0952                                               1 	(obj:0)
C0954                                               1 	(obj:0)
C0956                                               1 	(obj:0)
C0958                                               1 	(obj:0)
C0960                                               1 	(obj:0)
C1012                                               1 	(obj:0)
C1014                                               1 	(obj:0)
C1016                                               1 	(obj:0)
C1018                                               1 	(obj:0)
C1020                                               1 	(obj:0)
C1026                                               1 	(obj:0)
C1030                                               1 	(obj:0)
C1080                                               1 	(obj:0)
C1130                                               1 	(obj:0)
C1139                                               1 	(obj:0)
C1150                                               1 	(obj:0)
C1204                                               1 	(obj:0)
C1232                                               1 	(obj:0)
C1234                                               1 	(obj:0)
C1236                                               1 	(obj:0)
C1238                                               1 	(obj:0)
C1240                                               1 	(obj:0)
C1249                                               1 	(obj:0)
C1251                                               1 	(obj:0)
C1253                                               1 	(obj:0)
C1255                                               1 	(obj:0)
C1257                                               1 	(obj:0)
C1259                                               1 	(obj:0)
C1301                                               1 	(obj:0)
C1303                                               1 	(obj:0)
C1305                                               1 	(obj:0)
C1307                                               1 	(obj:0)
C1309                                               1 	(obj:0)
C1422                                               1 	(obj:0)
C1474                                               1 	(obj:0)
C1481                                               1 	(obj:0)
C1483                                               1 	(obj:0)
C1497                                               1 	(obj:0)
C1499                                               1 	(obj:0)
C1504                                               1 	(obj:0)
C1534                                               1 	(obj:0)
C1544                                               1 	(obj:0)
C1551                                               1 	(obj:0)
C1553                                               1 	(obj:0)
C1555                                               1 	(obj:0)
C1557                                               1 	(obj:0)
C1559                                               1 	(obj:0)
C1564                                               1 	(obj:0)
C1572                                               1 	(obj:0)
C1574                                               1 	(obj:0)
C1576                                               1 	(obj:0)
C1578                                               1 	(obj:0)
C1580                                               1 	(obj:0)
C1602                                               1 	(obj:0)
C1604                                               1 	(obj:0)
C1606                                               1 	(obj:0)
C1608                                               1 	(obj:0)
C1610                                               1 	(obj:0)
C1612                                               1 	(obj:0)
C1614                                               1 	(obj:0)
C1616                                               1 	(obj:0)
C1618                                               1 	(obj:0)
C1620                                               1 	(obj:0)
C1631                                               1 	(obj:0)
C1633                                               1 	(obj:0)
C1635                                               1 	(obj:0)
C1637                                               1 	(obj:0)
C1639                                               1 	(obj:0)
C1642                                               1 	(obj:0)
C1644                                               1 	(obj:0)
C1646                                               1 	(obj:0)
C1648                                               1 	(obj:0)
C1650                                               1 	(obj:0)
C1651                                               1 	(obj:0)
C1653                                               1 	(obj:0)
C1655                                               1 	(obj:0)
C1657                                               1 	(obj:0)
C1659                                               1 	(obj:0)
C1664                                               1 	(obj:0)
C1674                                               1 	(obj:0)
C1750                                               1 	(obj:0)
C1832                                               1 	(obj:0)
C1834                                               1 	(obj:0)
C1836                                               1 	(obj:0)
C1838                                               1 	(obj:0)
C1840                                               1 	(obj:0)
C1850                                               1 	(obj:0)
C2001                                               1 	(obj:0)
C2003                                               1 	(obj:0)
C2005                                               1 	(obj:0)
C2007                                               1 	(obj:0)
C2009                                               1 	(obj:0)
C2041                                               1 	(obj:1)
C2042                                               1 	(obj:1)
C2043                                               1 	(obj:1)
C2044                                               1 	(obj:1)
C2045                                               1 	(obj:1)
C2046                                               1 	(obj:1)
C2047                                               1 	(obj:1)
C2048                                               1 	(obj:1)
C2049                                               1 	(obj:1)
C2050                                               1 	(obj:1)
C2051                                               1 	(obj:1)
C2052                                               1 	(obj:1)
C2053                                               1 	(obj:1)
C2054                                               1 	(obj:1)
C2055                                               1 	(obj:1)
C2056                                               1 	(obj:1)
C2057                                               1 	(obj:1)
C2058                                               1 	(obj:1)
C2060                                               1 	(obj:1)
C2061                                               1 	(obj:1)
C2062                                               1 	(obj:1)
C2063                                               1 	(obj:1)
C2064                                               1 	(obj:1)
C2065                                               1 	(obj:1)
C2066                                               1 	(obj:1)
C2067                                               1 	(obj:1)
C2068                                               1 	(obj:1)
C2069                                               1 	(obj:1)
C2072                                               1 	(obj:1)
C2084                                               1 	(obj:0)
C2085                                               1 	(obj:0)
C2095                                               1 	(obj:0)
C2105                                               1 	(obj:0)
C2115                                               1 	(obj:0)
C2124                                               1 	(obj:0)
C2125                                               1 	(obj:0)
C2135                                               1 	(obj:0)
C2237                                               1 	(obj:0)
C2254                                               1 	(obj:0)
C2259                                               1 	(obj:0)
C2344                                               1 	(obj:0)
C2384                                               1 	(obj:0)
C2385                                               1 	(obj:0)
C2410                                               1 	(obj:0)
C2486                                               1 	(obj:0)
C2494                                               1 	(obj:0)
C2530                                               1 	(obj:0)
C2669                                               1 	(obj:0)
C2727                                               1 	(obj:0)
C2747                                               1 	(obj:0)
C2751                                               1 	(obj:0)
C2757                                               1 	(obj:0)
C2767                                               1 	(obj:0)
C2777                                               1 	(obj:0)
C2787                                               1 	(obj:0)
C2791                                               1 	(obj:0)
C2801                                               1 	(obj:0)
C2817                                               1 	(obj:0)
C2821                                               1 	(obj:0)
C2847                                               1 	(obj:0)
C2857                                               1 	(obj:0)
C2861                                               1 	(obj:0)
C2977                                               1 	(obj:0)
C2981                                               1 	(obj:0)
C3031                                               1 	(obj:0)
C3081                                               1 	(obj:0)
C3090                                               1 	(obj:0)
C3101                                               1 	(obj:0)
C3118                                               1 	(obj:0)
C3155                                               1 	(obj:0)
C3200                                               1 	(obj:0)
C3334                                               1 	(obj:0)
C3425                                               1 	(obj:0)
C3448                                               1 	(obj:0)
C3455                                               1 	(obj:0)
C3474                                               1 	(obj:0)
C3485                                               1 	(obj:0)
C3495                                               1 	(obj:0)
C3515                                               1 	(obj:0)
C3615                                               1 	(obj:0)
C3625                                               1 	(obj:0)
C3701                                               1 	(obj:0)
C3739                                               1 	(obj:0)
C3801                                               1 	(obj:0)
C4004                                               1 	(obj:0)
C4007                                               1 	(obj:0)
C4017                                               1 	(obj:0)
C4027                                               1 	(obj:0)
C4037                                               1 	(obj:0)
C4044                                               1 	(obj:0)
C4047                                               1 	(obj:0)
C4057                                               1 	(obj:0)
C4157                                               1 	(obj:0)
C4174                                               1 	(obj:0)
C4179                                               1 	(obj:0)
C4264                                               1 	(obj:0)
C4304                                               1 	(obj:0)
C4305                                               1 	(obj:0)
C4397                                               1 	(obj:0)
C4408                                               1 	(obj:0)
C4414                                               1 	(obj:0)
C4649                                               1 	(obj:0)
C4669                                               1 	(obj:0)
C4679                                               1 	(obj:0)
C4689                                               1 	(obj:0)
C4699                                               1 	(obj:0)
C4709                                               1 	(obj:0)
C4739                                               1 	(obj:0)
C4769                                               1 	(obj:0)
C4779                                               1 	(obj:0)
C4899                                               1 	(obj:0)
C5038                                               1 	(obj:0)
C5077                                               1 	(obj:0)
C5254                                               1 	(obj:0)
C5295                                               1 	(obj:0)
C5347                                               1 	(obj:0)
C5356                                               1 	(obj:0)
C5377                                               1 	(obj:0)
C5394                                               1 	(obj:0)
C5407                                               1 	(obj:0)
C5417                                               1 	(obj:0)
C5437                                               1 	(obj:0)
C5537                                               1 	(obj:0)
C5547                                               1 	(obj:0)
C5659                                               1 	(obj:0)
C0035                                               1 	(obj:0)
C0036                                               1 	(obj:0)
C0042                                               1 	(obj:0)
C0043                                               1 	(obj:0)
C0044                                               1 	(obj:0)
C0045                                               7 	(obj:0)
C0057                                               1 	(obj:0)
C0062                                               5 	(obj:0)
C0063                                               7 	(obj:0)
C0065                                               1 	(obj:0)
C0067                                               1 	(obj:0)
C0072                                               1 	(obj:0)
C0074                                               1 	(obj:0)
C0077                                               1 	(obj:0)
C0078                                               2 	(obj:0)
C0085                                              10 	(obj:0)
C0089                                               7 	(obj:0)
C0092                                               1 	(obj:0)
C0093                                               1 	(obj:0)
C0096                                               1 	(obj:0)
C0098                                               2 	(obj:0)
C0099                                               2 	(obj:0)
C0102                                               1 	(obj:0)
C0103                                               7 	(obj:0)
C0106                                               1 	(obj:0)
C0117                                               1 	(obj:0)
C0119                                               2 	(obj:0)
C0002                                               5 	(obj:0)
C0003                                               1 	(obj:0)
C0005                                               7 	(obj:0)
C0007                                               1 	(obj:0)
C0012                                               1 	(obj:0)
C0015                                               1 	(obj:0)
C0016                                               1 	(obj:0)
C0027                                              10 	(obj:0)
C0032                                               1 	(obj:0)
